; Stooge sort
(declare-datatypes (a b)
  ((pair (pair2 (proj1-pair a) (proj2-pair b)))))
(declare-datatypes (a)
  ((list (nil) (cons (head a) (tail (list a))))))
(declare-datatypes () ((Nat (Z) (S (p Nat)))))
(define-fun
  (par (a)
    (sort2
       ((x a) (y a)) (list a)
       (ite
         (<= x y) (cons x (cons y (as nil (list a))))
         (cons y (cons x (as nil (list a))))))))
(define-fun-rec
  plus
    ((x Nat) (y Nat)) Nat
    (match x
      (case Z y)
      (case (S z) (S (plus z y)))))
(define-fun-rec
  times
    ((x Nat) (y Nat)) Nat
    (match x
      (case Z Z)
      (case (S z) (plus y (times z y)))))
(define-fun-rec
  minus
    ((x Nat) (y Nat)) Nat
    (match x
      (case Z Z)
      (case (S z) (match y (case (S y2) (minus z y2))))))
(define-fun-rec
  lt
    ((x Nat) (y Nat)) Bool
    (match y
      (case Z false)
      (case (S z)
        (match x
          (case Z true)
          (case (S n) (lt n z))))))
(define-fun-rec
  (par (a)
    (length
       ((x (list a))) Nat
       (match x
         (case nil Z)
         (case (cons y l) (plus (S Z) (length l)))))))
(define-fun-rec
  le
    ((x Nat) (y Nat)) Bool
    (match x
      (case Z true)
      (case (S z)
        (match y
          (case Z false)
          (case (S x2) (le z x2))))))
(define-fun-rec
  (par (a)
    (take
       ((x Nat) (y (list a))) (list a)
       (ite
         (le x Z) (as nil (list a))
         (match y
           (case nil (as nil (list a)))
           (case (cons z xs)
             (match x (case (S x2) (cons z (take x2 xs))))))))))
(define-fun-rec
  idiv
    ((x Nat) (y Nat)) Nat (ite (lt x y) Z (S (idiv (minus x y) y))))
(define-fun-rec
  (par (a)
    (elem
       ((x a) (y (list a))) Bool
       (match y
         (case nil false)
         (case (cons z xs) (or (= z x) (elem x xs)))))))
(define-fun-rec
  (par (a)
    (drop
       ((x Nat) (y (list a))) (list a)
       (ite
         (le x Z) y
         (match y
           (case nil (as nil (list a)))
           (case (cons z xs1) (match x (case (S x2) (drop x2 xs1)))))))))
(define-fun
  (par (a)
    (splitAt
       ((x Nat) (y (list a))) (pair (list a) (list a))
       (pair2 (take x y) (drop x y)))))
(define-fun-rec
  (par (a)
    (deleteBy
       ((x (=> a (=> a Bool))) (y a) (z (list a))) (list a)
       (match z
         (case nil (as nil (list a)))
         (case (cons y2 ys)
           (ite (@ (@ x y) y2) ys (cons y2 (deleteBy x y ys))))))))
(define-fun-rec
  (par (a)
    (isPermutation
       ((x (list a)) (y (list a))) Bool
       (match x
         (case nil
           (match y
             (case nil true)
             (case (cons z x2) false)))
         (case (cons x3 xs)
           (and (elem x3 y)
             (isPermutation xs
               (deleteBy (lambda ((x4 a)) (lambda ((x5 a)) (= x4 x5)))
                 x3 y))))))))
(define-fun-rec
  (par (a)
    (++
       ((x (list a)) (y (list a))) (list a)
       (match x
         (case nil y)
         (case (cons z xs) (cons z (++ xs y)))))))
(define-funs-rec
  ((stooge2sort2 ((x (list Nat))) (list Nat))
   (stoogesort2 ((x (list Nat))) (list Nat))
   (stooge2sort1 ((x (list Nat))) (list Nat)))
  ((match
     (splitAt (idiv (S (times (S (S Z)) (length x))) (S (S (S Z)))) x)
     (case (pair2 ys2 zs1) (++ (stoogesort2 ys2) zs1)))
   (match x
     (case nil (as nil (list Nat)))
     (case (cons y z)
       (match z
         (case nil (cons y (as nil (list Nat))))
         (case (cons y2 x2)
           (match x2
             (case nil (sort2 y y2))
             (case (cons x3 x4)
               (stooge2sort2 (stooge2sort1 (stooge2sort2 x)))))))))
   (match (splitAt (idiv (length x) (S (S (S Z)))) x)
     (case (pair2 ys2 zs1) (++ ys2 (stoogesort2 zs1))))))
(assert-not
  (forall ((x (list Nat))) (isPermutation (stoogesort2 x) x)))
(check-sat)
